NAME : instances/50-tsp/instance-31.tsp
COMMENT : No comment
TYPE : TSP
DIMENSION: 50
EDGE_WEIGHT_TYPE : EUC_2D
NODE_COORD_SECTION
1 1585 1554 
2 939 1297 
3 1826 63 
4 1681 669 
5 651 1097 
6 1452 1785 
7 1986 705 
8 1047 1833 
9 624 1345 
10 1932 1874 
11 1045 1578 
12 747 53 
13 1518 1268 
14 1794 334 
15 1542 1996 
16 111 150 
17 1785 395 
18 814 383 
19 281 1361 
20 1564 834 
21 1988 571 
22 1642 1010 
23 36 493 
24 699 888 
25 1301 1354 
26 181 587 
27 701 46 
28 683 1863 
29 153 937 
30 1062 1053 
31 804 1723 
32 743 1913 
33 957 1345 
34 222 1466 
35 1145 558 
36 276 1894 
37 1963 687 
38 513 1231 
39 217 489 
40 206 956 
41 1938 1996 
42 1014 977 
43 913 414 
44 1322 1644 
45 532 1291 
46 1559 995 
47 915 1337 
48 1835 1327 
49 755 1377 
50 702 681 
EOF
